Data/raw/in3 - small.txt
3 4 3

5 7 10

2 6 8 7
5 3 2 6
9 1 1 2

2 1  5
0 1  7 
3 0  6