logs/cplex/in3 - small.log
Version identifier: 22.1.1.0 | 2022-11-28 | 9160aff4d
Tried aggregator 1 time.
Reduced MIP has 25 rows, 18 columns, and 63 nonzeros.
Reduced MIP has 18 binaries, 0 generals, 0 SOSs, and 0 indicators.
Presolve time = 0.02 sec. (0.03 ticks)
Found incumbent of value 63.000000 after 0.04 sec. (0.05 ticks)
Probing time = 0.00 sec. (0.01 ticks)
Tried aggregator 1 time.
Detecting symmetries...
Reduced MIP has 25 rows, 18 columns, and 63 nonzeros.
Reduced MIP has 18 binaries, 0 generals, 0 SOSs, and 0 indicators.
Presolve time = 0.00 sec. (0.04 ticks)
Probing time = 0.00 sec. (0.01 ticks)
Clique table members: 16.
MIP emphasis: balance optimality and feasibility.
MIP search method: dynamic search.
Parallel mode: deterministic, using up to 14 threads.
Root relaxation solution time = 0.00 sec. (0.03 ticks)

        Nodes                                         Cuts/
   Node  Left     Objective  IInf  Best Integer    Best Bound    ItCnt     Gap

*     0+    0                           63.0000        0.0000           100.00%
*     0+    0                           41.0000        0.0000           100.00%
*     0+    0                           28.0000        0.0000           100.00%
*     0+    0                           27.0000        0.0000           100.00%
      0     0       22.0000    11       27.0000       22.0000        9   18.52%
      0     0       25.5000     9       27.0000       Cuts: 7       12    5.56%
*     0+    0                           26.0000       25.5000             1.92%
      0     0        cutoff             26.0000       26.0000       12    0.00%
Elapsed time = 0.15 sec. (0.42 ticks, tree = 0.01 MB, solutions = 5)

Implied bound cuts applied:  4
Zero-half cuts applied:  2
Lift and project cuts applied:  1

Root node processing (before b&c):
  Real time             =    0.16 sec. (0.42 ticks)
Parallel b&c, 14 threads:
  Real time             =    0.00 sec. (0.00 ticks)
  Sync time (average)   =    0.00 sec.
  Wait time (average)   =    0.00 sec.
                          ------------
Total (root+branch&cut) =    0.16 sec. (0.42 ticks)
Status: Optimal
Obj: 26

Instalacoes abertas:
Instalação 0 aberta
Instalação 2 aberta

Atribuições (cliente -> instalação):
Cliente 0 -> Instalação 0
Cliente 1 -> Instalação 2
Cliente 2 -> Instalação 2
Cliente 3 -> Instalação 2
